language ESSENCE' 1.0
letting AssignmentMatrix be [[0, 0, 1, 1, 1, 1, 1, 0, 0, 1, 1, 0, 1, 0, 0, 0, 0, 1, 0, 1, 0, 0, 0], 
[0, 0, 0, 0, 0, 0, 0, 1, 0, 0, 0, 0, 0, 0, 1, 1, 1, 0, 1, 0, 1, 0, 1], 
[0, 0, 0, 0, 0, 0, 0, 0, 0, 0, 0, 0, 0, 0, 0, 0, 0, 0, 0, 0, 0, 0, 0], 
[0, 1, 0, 0, 0, 0, 0, 0, 1, 0, 0, 1, 0, 0, 0, 0, 0, 0, 0, 0, 0, 1, 0], 
[1, 0, 0, 0, 0, 1, 0, 0, 0, 0, 0, 0, 0, 0, 0, 0, 0, 0, 0, 0, 0, 0, 0]]
letting CPU be [4, 4, 2, 2, 2, 8, 2, 4, 4, 2, 2, 4, 2, 3, 2, 4, 4, 2, 4, 2, 4, 4, 4]
letting Memory be [7500, 7500, 3750, 15250, 3750, 15000, 3750, 7500, 7500, 3750, 3750, 7500, 3750, 976000, 3750, 7500, 7500, 3750, 7500, 3750, 7500, 7500, 7500]
letting Price be [210, 210, 116, 172, 116, 420, 116, 210, 210, 116, 116, 210, 116, 0, 116, 210, 210, 116, 210, 126, 210, 210, 210]
letting Storage be [2000, 2000, 2000, 1000, 2000, 2000, 2000, 2000, 2000, 2000, 2000, 2000, 2000, 12011, 2000, 2000, 2000, 2000, 2000, 2000, 2000, 2000, 2000]
letting VMType be [341, 341, 433, 423, 433, 278, 433, 341, 341, 433, 433, 341, 433, 1, 433, 341, 341, 433, 341, 477, 341, 341, 341]
